c "random instance"
p edges 150 2261
e 1 3
e 1 5
e 1 10
e 1 17
e 1 20
e 1 25
e 1 29
e 1 31
e 1 34
e 1 45
e 1 46
e 1 49
e 1 50
e 1 52
e 1 55
e 1 56
e 1 60
e 1 64
e 1 76
e 1 85
e 1 90
e 1 91
e 1 97
e 1 99
e 1 102
e 1 105
e 1 107
e 1 123
e 1 126
e 1 137
e 1 139
e 1 145
e 1 149
e 2 4
e 2 11
e 2 14
e 2 17
e 2 22
e 2 34
e 2 42
e 2 44
e 2 49
e 2 61
e 2 64
e 2 72
e 2 76
e 2 81
e 2 83
e 2 86
e 2 87
e 2 89
e 2 91
e 2 92
e 2 93
e 2 99
e 2 111
e 2 118
e 2 119
e 2 126
e 3 12
e 3 18
e 3 23
e 3 28
e 3 31
e 3 33
e 3 34
e 3 35
e 3 37
e 3 38
e 3 42
e 3 48
e 3 53
e 3 56
e 3 60
e 3 63
e 3 66
e 3 75
e 3 86
e 3 87
e 3 94
e 3 96
e 3 103
e 3 106
e 3 109
e 3 112
e 3 124
e 3 131
e 3 138
e 3 144
e 3 145
e 3 150
e 4 10
e 4 11
e 4 18
e 4 21
e 4 24
e 4 25
e 4 30
e 4 37
e 4 43
e 4 44
e 4 49
e 4 51
e 4 52
e 4 64
e 4 65
e 4 66
e 4 70
e 4 76
e 4 82
e 4 84
e 4 87
e 4 96
e 4 97
e 4 98
e 4 101
e 4 107
e 4 128
e 4 129
e 4 144
e 5 11
e 5 17
e 5 19
e 5 21
e 5 22
e 5 29
e 5 32
e 5 35
e 5 39
e 5 40
e 5 42
e 5 50
e 5 62
e 5 63
e 5 69
e 5 70
e 5 73
e 5 77
e 5 84
e 5 85
e 5 90
e 5 99
e 5 100
e 5 101
e 5 103
e 5 109
e 5 113
e 5 120
e 5 121
e 5 128
e 5 130
e 5 132
e 5 136
e 5 138
e 5 144
e 6 9
e 6 17
e 6 20
e 6 30
e 6 31
e 6 40
e 6 41
e 6 44
e 6 48
e 6 53
e 6 58
e 6 76
e 6 79
e 6 86
e 6 90
e 6 91
e 6 102
e 6 104
e 6 116
e 6 122
e 6 126
e 6 133
e 6 146
e 7 12
e 7 19
e 7 20
e 7 23
e 7 29
e 7 34
e 7 37
e 7 42
e 7 43
e 7 53
e 7 55
e 7 63
e 7 67
e 7 68
e 7 70
e 7 73
e 7 86
e 7 88
e 7 89
e 7 100
e 7 110
e 7 118
e 7 120
e 7 131
e 7 132
e 7 136
e 7 137
e 8 13
e 8 21
e 8 23
e 8 37
e 8 43
e 8 45
e 8 53
e 8 55
e 8 59
e 8 67
e 8 71
e 8 75
e 8 81
e 8 85
e 8 86
e 8 92
e 8 95
e 8 96
e 8 104
e 8 105
e 8 109
e 8 115
e 8 127
e 8 132
e 8 137
e 8 139
e 9 11
e 9 17
e 9 18
e 9 21
e 9 37
e 9 49
e 9 53
e 9 57
e 9 60
e 9 64
e 9 67
e 9 74
e 9 82
e 9 92
e 9 93
e 9 101
e 9 107
e 9 110
e 9 113
e 9 115
e 9 121
e 9 132
e 9 135
e 9 139
e 9 145
e 9 147
e 10 11
e 10 16
e 10 23
e 10 24
e 10 40
e 10 44
e 10 53
e 10 57
e 10 64
e 10 71
e 10 75
e 10 82
e 10 86
e 10 88
e 10 93
e 10 94
e 10 103
e 10 105
e 10 118
e 10 119
e 10 120
e 10 128
e 10 130
e 10 142
e 10 150
e 11 12
e 11 14
e 11 15
e 11 17
e 11 26
e 11 32
e 11 34
e 11 62
e 11 69
e 11 73
e 11 77
e 11 85
e 11 96
e 11 102
e 11 103
e 11 107
e 11 121
e 11 125
e 11 127
e 11 134
e 11 138
e 11 139
e 11 145
e 11 148
e 12 14
e 12 18
e 12 22
e 12 23
e 12 27
e 12 28
e 12 29
e 12 32
e 12 34
e 12 36
e 12 38
e 12 39
e 12 45
e 12 51
e 12 55
e 12 57
e 12 59
e 12 66
e 12 68
e 12 69
e 12 72
e 12 76
e 12 78
e 12 80
e 12 83
e 12 84
e 12 87
e 12 88
e 12 91
e 12 102
e 12 103
e 12 104
e 12 105
e 12 108
e 12 110
e 12 117
e 12 123
e 12 125
e 12 126
e 12 127
e 12 128
e 12 138
e 12 147
e 13 20
e 13 22
e 13 28
e 13 29
e 13 35
e 13 36
e 13 55
e 13 60
e 13 65
e 13 70
e 13 78
e 13 84
e 13 103
e 13 111
e 13 116
e 13 120
e 13 121
e 13 124
e 13 125
e 13 133
e 13 136
e 13 137
e 13 142
e 14 15
e 14 19
e 14 22
e 14 27
e 14 28
e 14 30
e 14 35
e 14 36
e 14 38
e 14 45
e 14 66
e 14 74
e 14 76
e 14 91
e 14 95
e 14 101
e 14 104
e 14 105
e 14 107
e 14 115
e 14 118
e 14 119
e 14 121
e 14 123
e 14 130
e 14 131
e 14 137
e 14 139
e 15 18
e 15 19
e 15 22
e 15 23
e 15 27
e 15 31
e 15 33
e 15 39
e 15 44
e 15 49
e 15 50
e 15 51
e 15 56
e 15 69
e 15 74
e 15 84
e 15 89
e 15 95
e 15 99
e 15 105
e 15 106
e 15 111
e 15 114
e 15 120
e 15 122
e 15 124
e 15 127
e 15 131
e 15 136
e 15 148
e 16 17
e 16 22
e 16 23
e 16 27
e 16 28
e 16 34
e 16 37
e 16 39
e 16 45
e 16 48
e 16 52
e 16 55
e 16 56
e 16 57
e 16 62
e 16 63
e 16 68
e 16 79
e 16 87
e 16 101
e 16 104
e 16 107
e 16 111
e 16 116
e 16 121
e 16 127
e 16 128
e 16 140
e 17 18
e 17 21
e 17 22
e 17 30
e 17 32
e 17 36
e 17 44
e 17 47
e 17 65
e 17 70
e 17 74
e 17 76
e 17 78
e 17 80
e 17 85
e 17 90
e 17 92
e 17 93
e 17 94
e 17 98
e 17 113
e 17 120
e 17 125
e 17 137
e 17 140
e 17 148
e 18 20
e 18 23
e 18 24
e 18 29
e 18 32
e 18 38
e 18 42
e 18 43
e 18 45
e 18 51
e 18 57
e 18 59
e 18 64
e 18 66
e 18 70
e 18 73
e 18 83
e 18 84
e 18 94
e 18 95
e 18 107
e 18 118
e 18 125
e 18 143
e 19 31
e 19 40
e 19 43
e 19 49
e 19 50
e 19 55
e 19 58
e 19 61
e 19 63
e 19 71
e 19 85
e 19 98
e 19 99
e 19 111
e 19 119
e 19 133
e 19 137
e 19 141
e 19 142
e 19 150
e 20 22
e 20 27
e 20 32
e 20 35
e 20 42
e 20 47
e 20 51
e 20 56
e 20 57
e 20 59
e 20 63
e 20 68
e 20 70
e 20 72
e 20 78
e 20 89
e 20 91
e 20 92
e 20 106
e 20 109
e 20 122
e 20 131
e 20 132
e 20 135
e 20 137
e 20 147
e 20 150
e 21 27
e 21 31
e 21 39
e 21 45
e 21 46
e 21 47
e 21 50
e 21 57
e 21 59
e 21 64
e 21 71
e 21 73
e 21 78
e 21 82
e 21 92
e 21 94
e 21 100
e 21 104
e 21 109
e 21 112
e 21 113
e 21 114
e 21 125
e 21 127
e 21 128
e 21 131
e 21 133
e 21 137
e 21 146
e 21 150
e 22 23
e 22 40
e 22 45
e 22 54
e 22 60
e 22 62
e 22 68
e 22 81
e 22 87
e 22 97
e 22 99
e 22 103
e 22 109
e 22 125
e 22 130
e 22 133
e 23 28
e 23 29
e 23 31
e 23 34
e 23 48
e 23 62
e 23 63
e 23 65
e 23 67
e 23 68
e 23 69
e 23 70
e 23 71
e 23 88
e 23 89
e 23 90
e 23 97
e 23 108
e 23 115
e 23 124
e 23 126
e 23 129
e 23 131
e 23 132
e 23 133
e 23 143
e 23 148
e 23 150
e 24 30
e 24 31
e 24 37
e 24 41
e 24 42
e 24 51
e 24 57
e 24 61
e 24 63
e 24 65
e 24 68
e 24 69
e 24 76
e 24 78
e 24 79
e 24 82
e 24 89
e 24 97
e 24 99
e 24 101
e 24 102
e 24 115
e 24 117
e 24 118
e 24 120
e 24 121
e 24 126
e 24 128
e 24 136
e 24 146
e 25 26
e 25 39
e 25 40
e 25 46
e 25 57
e 25 61
e 25 64
e 25 65
e 25 73
e 25 75
e 25 86
e 25 91
e 25 100
e 25 103
e 25 106
e 25 112
e 25 119
e 25 133
e 25 137
e 25 147
e 25 148
e 26 27
e 26 31
e 26 38
e 26 39
e 26 51
e 26 55
e 26 60
e 26 64
e 26 65
e 26 66
e 26 68
e 26 79
e 26 84
e 26 86
e 26 90
e 26 94
e 26 97
e 26 100
e 26 104
e 26 109
e 26 113
e 26 115
e 26 118
e 26 125
e 26 131
e 26 135
e 26 138
e 26 140
e 26 141
e 26 146
e 26 147
e 27 32
e 27 33
e 27 35
e 27 44
e 27 49
e 27 52
e 27 53
e 27 61
e 27 64
e 27 70
e 27 75
e 27 81
e 27 83
e 27 84
e 27 90
e 27 93
e 27 104
e 27 106
e 27 109
e 27 111
e 27 113
e 27 117
e 27 118
e 27 120
e 27 122
e 27 123
e 27 127
e 27 138
e 27 139
e 27 140
e 27 146
e 27 150
e 28 29
e 28 31
e 28 33
e 28 37
e 28 41
e 28 44
e 28 46
e 28 47
e 28 51
e 28 52
e 28 65
e 28 77
e 28 84
e 28 87
e 28 90
e 28 101
e 28 102
e 28 104
e 28 105
e 28 115
e 28 119
e 28 121
e 28 122
e 28 129
e 28 132
e 28 140
e 28 144
e 28 145
e 29 31
e 29 32
e 29 40
e 29 42
e 29 43
e 29 44
e 29 45
e 29 47
e 29 49
e 29 56
e 29 59
e 29 62
e 29 64
e 29 66
e 29 74
e 29 79
e 29 82
e 29 83
e 29 96
e 29 99
e 29 111
e 29 120
e 29 126
e 29 130
e 29 131
e 29 135
e 29 141
e 29 144
e 29 148
e 30 32
e 30 37
e 30 38
e 30 52
e 30 53
e 30 55
e 30 63
e 30 68
e 30 72
e 30 79
e 30 82
e 30 94
e 30 95
e 30 103
e 30 105
e 30 110
e 30 118
e 30 121
e 30 122
e 30 124
e 30 127
e 30 144
e 30 145
e 30 147
e 30 148
e 31 33
e 31 35
e 31 50
e 31 58
e 31 61
e 31 63
e 31 66
e 31 67
e 31 75
e 31 78
e 31 80
e 31 82
e 31 88
e 31 92
e 31 101
e 31 107
e 31 119
e 31 126
e 31 132
e 31 133
e 31 135
e 31 141
e 31 142
e 31 145
e 31 148
e 32 36
e 32 37
e 32 48
e 32 51
e 32 57
e 32 58
e 32 61
e 32 65
e 32 66
e 32 71
e 32 73
e 32 85
e 32 92
e 32 93
e 32 101
e 32 104
e 32 105
e 32 106
e 32 110
e 32 117
e 32 121
e 32 128
e 32 131
e 32 141
e 32 142
e 32 147
e 33 38
e 33 42
e 33 43
e 33 53
e 33 57
e 33 58
e 33 59
e 33 62
e 33 66
e 33 67
e 33 73
e 33 75
e 33 76
e 33 80
e 33 85
e 33 86
e 33 87
e 33 91
e 33 94
e 33 106
e 33 111
e 33 132
e 33 139
e 33 143
e 33 144
e 33 145
e 33 147
e 33 150
e 34 52
e 34 55
e 34 59
e 34 61
e 34 63
e 34 69
e 34 78
e 34 79
e 34 85
e 34 88
e 34 97
e 34 101
e 34 106
e 34 110
e 34 114
e 34 120
e 34 121
e 34 124
e 34 132
e 34 135
e 34 136
e 34 144
e 34 150
e 35 52
e 35 56
e 35 60
e 35 66
e 35 79
e 35 91
e 35 97
e 35 103
e 35 113
e 35 115
e 35 119
e 35 122
e 35 125
e 35 127
e 35 128
e 35 137
e 35 138
e 35 146
e 36 40
e 36 43
e 36 45
e 36 55
e 36 57
e 36 59
e 36 60
e 36 62
e 36 63
e 36 72
e 36 83
e 36 87
e 36 100
e 36 112
e 36 125
e 36 130
e 36 135
e 36 137
e 36 138
e 36 143
e 36 146
e 36 147
e 36 148
e 36 149
e 37 52
e 37 54
e 37 55
e 37 59
e 37 60
e 37 65
e 37 72
e 37 85
e 37 94
e 37 96
e 37 98
e 37 100
e 37 101
e 37 106
e 37 112
e 37 114
e 37 125
e 37 127
e 37 129
e 37 141
e 38 40
e 38 42
e 38 44
e 38 76
e 38 77
e 38 84
e 38 91
e 38 95
e 38 100
e 38 106
e 38 109
e 38 116
e 38 128
e 38 130
e 38 132
e 38 146
e 39 43
e 39 44
e 39 47
e 39 48
e 39 50
e 39 52
e 39 57
e 39 58
e 39 59
e 39 62
e 39 66
e 39 76
e 39 83
e 39 96
e 39 98
e 39 99
e 39 100
e 39 105
e 39 109
e 39 112
e 39 120
e 39 121
e 39 125
e 39 132
e 39 137
e 39 138
e 39 142
e 39 143
e 40 48
e 40 52
e 40 57
e 40 58
e 40 64
e 40 67
e 40 73
e 40 86
e 40 91
e 40 92
e 40 104
e 40 105
e 40 111
e 40 112
e 40 127
e 40 130
e 40 134
e 40 137
e 40 139
e 40 140
e 41 56
e 41 66
e 41 68
e 41 69
e 41 72
e 41 79
e 41 82
e 41 83
e 41 94
e 41 108
e 41 112
e 41 117
e 41 118
e 41 122
e 41 127
e 41 134
e 41 135
e 41 136
e 41 140
e 41 146
e 41 147
e 42 44
e 42 49
e 42 60
e 42 62
e 42 63
e 42 64
e 42 65
e 42 66
e 42 67
e 42 70
e 42 76
e 42 83
e 42 84
e 42 85
e 42 88
e 42 89
e 42 90
e 42 92
e 42 93
e 42 94
e 42 99
e 42 100
e 42 104
e 42 105
e 42 112
e 42 114
e 42 118
e 42 120
e 42 135
e 42 136
e 43 46
e 43 47
e 43 56
e 43 59
e 43 61
e 43 80
e 43 95
e 43 98
e 43 101
e 43 106
e 43 117
e 43 123
e 43 125
e 43 126
e 43 127
e 43 129
e 43 132
e 43 137
e 43 146
e 43 150
e 44 50
e 44 56
e 44 73
e 44 78
e 44 81
e 44 94
e 44 96
e 44 99
e 44 108
e 44 109
e 44 115
e 44 119
e 44 122
e 44 127
e 44 136
e 44 140
e 44 147
e 44 148
e 45 52
e 45 59
e 45 64
e 45 72
e 45 73
e 45 78
e 45 88
e 45 91
e 45 96
e 45 97
e 45 102
e 45 104
e 45 105
e 45 109
e 45 112
e 45 120
e 45 134
e 46 47
e 46 48
e 46 55
e 46 72
e 46 74
e 46 80
e 46 83
e 46 84
e 46 85
e 46 87
e 46 89
e 46 90
e 46 102
e 46 110
e 46 112
e 46 126
e 46 131
e 46 137
e 46 144
e 47 49
e 47 50
e 47 56
e 47 57
e 47 58
e 47 60
e 47 62
e 47 65
e 47 66
e 47 67
e 47 68
e 47 76
e 47 85
e 47 86
e 47 87
e 47 93
e 47 99
e 47 100
e 47 105
e 47 109
e 47 110
e 47 111
e 47 114
e 47 117
e 47 129
e 47 133
e 47 135
e 47 138
e 47 143
e 47 148
e 47 149
e 48 50
e 48 54
e 48 55
e 48 65
e 48 67
e 48 71
e 48 75
e 48 78
e 48 87
e 48 93
e 48 96
e 48 98
e 48 106
e 48 109
e 48 111
e 48 115
e 48 116
e 48 124
e 48 125
e 48 126
e 48 132
e 48 138
e 48 143
e 48 144
e 49 51
e 49 55
e 49 60
e 49 62
e 49 65
e 49 68
e 49 77
e 49 78
e 49 79
e 49 80
e 49 88
e 49 90
e 49 95
e 49 104
e 49 118
e 49 120
e 49 121
e 49 122
e 49 130
e 49 139
e 49 141
e 49 142
e 49 145
e 50 51
e 50 59
e 50 61
e 50 68
e 50 74
e 50 79
e 50 95
e 50 100
e 50 111
e 50 112
e 50 116
e 50 119
e 50 121
e 50 127
e 50 145
e 50 148
e 50 149
e 50 150
e 51 55
e 51 57
e 51 64
e 51 69
e 51 70
e 51 75
e 51 77
e 51 85
e 51 88
e 51 91
e 51 93
e 51 98
e 51 112
e 51 113
e 51 114
e 51 129
e 51 130
e 51 132
e 51 146
e 51 148
e 52 58
e 52 66
e 52 67
e 52 73
e 52 75
e 52 79
e 52 81
e 52 83
e 52 84
e 52 88
e 52 93
e 52 104
e 52 110
e 52 117
e 52 121
e 52 123
e 52 125
e 52 131
e 52 139
e 52 140
e 52 143
e 53 60
e 53 64
e 53 65
e 53 75
e 53 82
e 53 89
e 53 93
e 53 95
e 53 105
e 53 106
e 53 112
e 53 114
e 53 117
e 53 122
e 53 129
e 53 134
e 53 138
e 53 142
e 54 58
e 54 62
e 54 63
e 54 89
e 54 98
e 54 112
e 54 129
e 54 138
e 54 144
e 55 56
e 55 58
e 55 63
e 55 64
e 55 67
e 55 71
e 55 75
e 55 90
e 55 98
e 55 101
e 55 102
e 55 104
e 55 105
e 55 107
e 55 119
e 55 122
e 55 127
e 55 133
e 55 134
e 55 138
e 55 140
e 55 142
e 55 144
e 55 145
e 55 149
e 56 58
e 56 60
e 56 65
e 56 74
e 56 81
e 56 87
e 56 94
e 56 95
e 56 97
e 56 102
e 56 103
e 56 110
e 56 112
e 56 120
e 56 129
e 56 130
e 56 132
e 56 143
e 56 144
e 56 146
e 56 150
e 57 63
e 57 64
e 57 65
e 57 69
e 57 71
e 57 74
e 57 83
e 57 89
e 57 91
e 57 120
e 57 124
e 57 129
e 57 130
e 57 135
e 57 137
e 57 140
e 57 143
e 57 144
e 57 147
e 58 60
e 58 70
e 58 72
e 58 81
e 58 82
e 58 84
e 58 92
e 58 109
e 58 113
e 58 118
e 58 124
e 58 131
e 58 136
e 58 146
e 58 147
e 58 149
e 59 62
e 59 73
e 59 80
e 59 85
e 59 95
e 59 98
e 59 99
e 59 108
e 59 110
e 59 111
e 59 113
e 59 116
e 59 119
e 59 130
e 59 148
e 60 65
e 60 66
e 60 74
e 60 76
e 60 77
e 60 81
e 60 82
e 60 85
e 60 89
e 60 91
e 60 101
e 60 108
e 60 116
e 60 128
e 60 131
e 60 135
e 60 141
e 61 64
e 61 72
e 61 76
e 61 77
e 61 81
e 61 84
e 61 90
e 61 91
e 61 98
e 61 100
e 61 108
e 61 114
e 61 115
e 61 117
e 61 128
e 61 134
e 61 137
e 61 142
e 61 147
e 62 67
e 62 68
e 62 71
e 62 76
e 62 77
e 62 80
e 62 84
e 62 88
e 62 100
e 62 102
e 62 104
e 62 113
e 62 119
e 62 126
e 62 128
e 62 136
e 62 140
e 62 145
e 63 66
e 63 88
e 63 92
e 63 94
e 63 95
e 63 96
e 63 101
e 63 105
e 63 137
e 63 138
e 63 148
e 63 149
e 64 67
e 64 75
e 64 77
e 64 79
e 64 88
e 64 92
e 64 93
e 64 102
e 64 106
e 64 111
e 64 119
e 64 126
e 64 131
e 64 149
e 64 150
e 65 81
e 65 89
e 65 94
e 65 100
e 65 104
e 65 109
e 65 114
e 65 131
e 65 133
e 65 138
e 65 143
e 65 147
e 65 148
e 66 67
e 66 77
e 66 81
e 66 85
e 66 102
e 66 112
e 66 118
e 66 119
e 66 121
e 66 132
e 66 140
e 66 141
e 66 146
e 66 147
e 67 70
e 67 71
e 67 76
e 67 80
e 67 81
e 67 85
e 67 91
e 67 95
e 67 97
e 67 106
e 67 108
e 67 113
e 67 115
e 67 117
e 67 123
e 67 125
e 67 131
e 67 133
e 67 143
e 67 145
e 68 69
e 68 70
e 68 71
e 68 76
e 68 95
e 68 103
e 68 106
e 68 107
e 68 108
e 68 109
e 68 111
e 68 116
e 68 118
e 68 123
e 68 129
e 68 133
e 68 137
e 68 140
e 68 141
e 68 146
e 68 148
e 68 150
e 69 70
e 69 73
e 69 74
e 69 84
e 69 93
e 69 102
e 69 103
e 69 110
e 69 111
e 69 116
e 69 117
e 69 127
e 69 130
e 69 132
e 69 134
e 69 147
e 70 72
e 70 73
e 70 74
e 70 81
e 70 82
e 70 83
e 70 84
e 70 91
e 70 96
e 70 97
e 70 98
e 70 102
e 70 108
e 70 117
e 70 119
e 70 120
e 70 121
e 70 123
e 70 128
e 70 129
e 70 134
e 70 138
e 70 139
e 70 143
e 70 150
e 71 96
e 71 100
e 71 105
e 71 117
e 71 119
e 71 137
e 71 143
e 71 144
e 71 147
e 72 73
e 72 74
e 72 79
e 72 82
e 72 85
e 72 86
e 72 92
e 72 94
e 72 95
e 72 97
e 72 113
e 72 115
e 72 122
e 72 123
e 72 130
e 72 133
e 72 137
e 72 142
e 73 78
e 73 89
e 73 92
e 73 94
e 73 106
e 73 108
e 73 114
e 73 124
e 73 126
e 73 134
e 73 136
e 73 139
e 73 142
e 73 143
e 73 145
e 73 147
e 73 148
e 74 89
e 74 90
e 74 92
e 74 106
e 74 110
e 74 113
e 74 114
e 74 116
e 74 117
e 74 119
e 74 128
e 74 144
e 74 149
e 75 77
e 75 83
e 75 90
e 75 94
e 75 103
e 75 108
e 75 109
e 75 132
e 75 133
e 75 136
e 75 137
e 75 140
e 75 143
e 75 144
e 75 146
e 76 77
e 76 80
e 76 88
e 76 97
e 76 101
e 76 112
e 76 124
e 76 128
e 76 143
e 76 150
e 77 79
e 77 93
e 77 97
e 77 107
e 77 108
e 77 121
e 77 127
e 77 128
e 77 129
e 77 132
e 77 137
e 77 143
e 78 86
e 78 90
e 78 93
e 78 95
e 78 103
e 78 106
e 78 108
e 78 112
e 78 113
e 78 115
e 78 118
e 78 148
e 79 93
e 79 105
e 79 106
e 79 114
e 79 116
e 79 117
e 79 121
e 79 129
e 79 138
e 79 140
e 79 144
e 79 148
e 80 83
e 80 93
e 80 95
e 80 97
e 80 102
e 80 114
e 80 115
e 80 118
e 80 135
e 80 137
e 80 148
e 81 85
e 81 92
e 81 100
e 81 103
e 81 108
e 81 111
e 81 116
e 81 124
e 81 127
e 81 128
e 81 132
e 81 137
e 81 138
e 81 140
e 82 90
e 82 92
e 82 93
e 82 94
e 82 95
e 82 97
e 82 98
e 82 100
e 82 101
e 82 103
e 82 104
e 82 114
e 82 124
e 82 131
e 82 138
e 82 144
e 82 147
e 82 148
e 83 87
e 83 91
e 83 94
e 83 95
e 83 103
e 83 107
e 83 109
e 83 118
e 83 121
e 83 128
e 83 129
e 83 139
e 84 85
e 84 89
e 84 93
e 84 94
e 84 99
e 84 100
e 84 104
e 84 109
e 84 115
e 84 117
e 84 119
e 84 128
e 84 138
e 84 140
e 84 143
e 84 149
e 85 102
e 85 110
e 85 115
e 85 121
e 85 122
e 85 124
e 85 130
e 85 135
e 85 147
e 85 148
e 86 89
e 86 95
e 86 96
e 86 105
e 86 106
e 86 110
e 86 111
e 86 115
e 86 117
e 86 121
e 86 145
e 86 148
e 86 150
e 87 92
e 87 93
e 87 94
e 87 103
e 87 108
e 87 120
e 87 121
e 87 126
e 87 129
e 87 133
e 87 134
e 87 136
e 87 138
e 87 139
e 87 143
e 88 97
e 88 105
e 88 109
e 88 112
e 88 116
e 88 117
e 88 118
e 88 126
e 88 130
e 88 133
e 88 138
e 88 146
e 88 150
e 89 91
e 89 101
e 89 104
e 89 108
e 89 111
e 89 113
e 89 132
e 89 134
e 89 135
e 89 136
e 89 147
e 89 149
e 90 93
e 90 95
e 90 96
e 90 102
e 90 103
e 90 104
e 90 106
e 90 107
e 90 109
e 90 114
e 90 121
e 90 124
e 90 125
e 90 137
e 90 141
e 90 148
e 91 94
e 91 100
e 91 102
e 91 106
e 91 109
e 91 111
e 91 114
e 91 116
e 91 119
e 91 121
e 91 125
e 91 128
e 91 129
e 91 131
e 91 137
e 91 139
e 91 150
e 92 99
e 92 103
e 92 104
e 92 105
e 92 113
e 92 116
e 92 122
e 92 128
e 92 130
e 92 131
e 92 132
e 92 136
e 92 137
e 92 139
e 92 141
e 92 145
e 92 146
e 93 95
e 93 97
e 93 103
e 93 109
e 93 115
e 93 119
e 93 124
e 93 132
e 93 136
e 93 139
e 93 145
e 93 146
e 94 99
e 94 103
e 94 105
e 94 109
e 94 116
e 94 121
e 94 125
e 94 130
e 94 131
e 94 135
e 94 139
e 94 142
e 95 98
e 95 113
e 95 119
e 95 132
e 95 138
e 95 142
e 95 143
e 95 145
e 95 147
e 95 149
e 96 98
e 96 99
e 96 108
e 96 118
e 96 127
e 96 131
e 96 137
e 96 140
e 96 143
e 96 145
e 96 148
e 97 104
e 97 106
e 97 110
e 97 116
e 97 119
e 97 122
e 97 127
e 97 130
e 97 136
e 97 137
e 97 146
e 98 100
e 98 101
e 98 121
e 98 127
e 98 128
e 98 138
e 98 139
e 98 140
e 99 114
e 99 118
e 99 129
e 99 130
e 99 143
e 99 144
e 99 147
e 99 148
e 100 104
e 100 110
e 100 112
e 100 115
e 100 125
e 100 130
e 100 134
e 100 143
e 101 102
e 101 106
e 101 111
e 101 119
e 101 127
e 101 132
e 101 134
e 101 136
e 101 138
e 101 144
e 101 147
e 101 150
e 102 112
e 102 114
e 102 118
e 102 126
e 102 138
e 102 145
e 102 148
e 103 104
e 103 107
e 103 108
e 103 109
e 103 111
e 103 113
e 103 122
e 103 123
e 103 126
e 103 127
e 103 128
e 103 138
e 103 142
e 103 145
e 103 146
e 103 149
e 103 150
e 104 118
e 104 124
e 104 125
e 104 127
e 104 128
e 104 129
e 104 138
e 104 144
e 104 146
e 104 148
e 105 106
e 105 108
e 105 110
e 105 113
e 105 117
e 105 123
e 105 126
e 105 131
e 105 136
e 105 137
e 105 144
e 105 148
e 106 107
e 106 116
e 106 126
e 106 129
e 106 130
e 106 137
e 106 140
e 106 145
e 107 115
e 107 118
e 107 121
e 107 122
e 107 124
e 107 130
e 107 139
e 107 141
e 107 148
e 108 113
e 108 114
e 108 116
e 108 118
e 108 119
e 108 121
e 108 122
e 108 130
e 108 136
e 108 145
e 108 147
e 108 149
e 109 113
e 109 117
e 109 118
e 109 123
e 109 126
e 109 127
e 109 128
e 109 133
e 109 138
e 109 139
e 109 143
e 110 116
e 110 117
e 110 137
e 110 138
e 110 139
e 110 149
e 111 115
e 111 116
e 111 117
e 111 120
e 111 128
e 111 138
e 111 139
e 111 140
e 111 144
e 112 123
e 112 127
e 112 130
e 112 131
e 112 136
e 112 137
e 112 149
e 113 115
e 113 120
e 113 124
e 113 134
e 114 119
e 114 129
e 114 135
e 114 142
e 115 120
e 115 124
e 115 126
e 115 127
e 115 130
e 115 133
e 115 143
e 115 144
e 115 149
e 115 150
e 116 123
e 116 126
e 116 127
e 116 130
e 116 134
e 116 136
e 116 137
e 117 118
e 117 129
e 118 124
e 118 132
e 118 138
e 118 139
e 118 141
e 118 144
e 118 146
e 118 147
e 118 148
e 119 131
e 119 133
e 119 140
e 119 142
e 119 143
e 119 145
e 120 133
e 120 141
e 121 124
e 121 126
e 121 133
e 121 139
e 121 142
e 121 146
e 121 147
e 121 149
e 122 125
e 122 144
e 122 145
e 122 149
e 123 133
e 123 137
e 123 140
e 123 141
e 123 146
e 123 149
e 124 131
e 124 133
e 124 141
e 124 142
e 124 145
e 125 130
e 125 132
e 125 144
e 126 130
e 126 136
e 126 148
e 126 149
e 127 148
e 128 129
e 128 150
e 129 130
e 129 134
e 129 136
e 129 138
e 129 140
e 129 142
e 129 145
e 129 147
e 130 132
e 130 137
e 130 143
e 130 147
e 131 132
e 131 136
e 131 142
e 131 149
e 132 134
e 132 139
e 133 135
e 133 136
e 133 137
e 133 143
e 133 144
e 133 146
e 133 148
e 133 150
e 134 138
e 134 140
e 134 147
e 135 138
e 135 141
e 135 145
e 135 149
e 136 137
e 136 143
e 136 150
e 137 140
e 137 142
e 137 146
e 137 150
e 139 146
e 140 142
e 140 143
e 140 144
e 140 148
e 140 149
e 141 143
e 141 144
e 141 146
e 141 150
e 142 149
e 146 150
e 147 150
